Read MPS format model from file dat/rmp/4node_16384_23.mps
Reading time = 0.76 seconds
: 16444 rows, 87569 columns, 2080513 nonzeros
Gurobi Optimizer version 9.0.0 build v9.0.0rc2 (linux64)
Optimize a model with 16444 rows, 87569 columns and 2080513 nonzeros
Model fingerprint: 0x91ee8c01
Coefficient statistics:
  Matrix range     [4e-04, 2e+01]
  Objective range  [4e-03, 1e+04]
  Bounds range     [0e+00, 0e+00]
  RHS range        [1e+00, 8e+01]
Ordering time: 0.02s

Barrier statistics:
 AA' NZ     : 7.739e+05
 Factor NZ  : 9.623e+05 (roughly 50 MBytes of memory)
 Factor Ops : 6.034e+07 (less than 1 second per iteration)
 Threads    : 1

                  Objective                Residual
Iter       Primal          Dual         Primal    Dual     Compl     Time
   0   3.04744217e+07  0.00000000e+00  6.80e+04 2.40e+02  6.60e+04     1s
   1   1.01335195e+06 -6.71296471e+07  2.10e+03 1.81e+03  3.16e+03     1s
   2   6.08791652e+05 -6.41922691e+07  1.01e+03 1.81e+03  1.97e+03     1s
   3   2.84019431e+05 -5.05666743e+07  3.74e+02 1.01e+03  1.05e+03     1s
   4   1.61975517e+05 -1.90415523e+07  2.43e+00 1.80e+02  2.65e+02     1s
   5   1.47477809e+05 -6.64460530e+05  1.87e-09 6.63e+00  1.09e+01     1s
   6   9.43219006e+04 -2.37729199e+05  1.08e-09 2.33e+00  4.33e+00     1s
   7   6.45103768e+04 -1.43823388e+05  6.39e-10 1.47e+00  2.72e+00     1s
   8   2.17297277e+04 -7.79143720e+04  2.17e-10 8.17e-01  1.32e+00     2s
   9   2.58455147e+03 -6.77508505e+03  2.04e-10 3.60e-02  1.14e-01     2s
  10   4.89768649e+02 -4.06050343e+03  4.92e-09 1.19e-02  5.44e-02     2s
  11   7.90907783e+01 -2.25496350e+03  2.52e-08 1.03e-03  2.69e-02     2s
  12   2.30559279e+03 -2.38348375e+03  1.19e-06 9.58e-04  5.38e-02     2s
  13  -1.60790423e+02 -1.45596452e+03  3.39e-07 5.37e-06  1.48e-02     3s
  14  -2.74167005e+02 -4.99347520e+02  1.18e-04 3.00e-07  2.57e-03     3s
  15  -3.40949936e+02 -4.80402999e+02  1.29e-04 3.98e-08  1.59e-03     3s
  16  -3.82183996e+02 -4.71721728e+02  7.65e-05 2.27e-08  1.02e-03     3s
  17  -4.07160278e+02 -4.56622540e+02  4.42e-05 1.58e-08  5.65e-04     3s
  18  -4.18265761e+02 -4.56109575e+02  3.03e-05 1.33e-08  4.32e-04     4s
  19  -4.32386637e+02 -4.51339796e+02  2.60e-05 2.63e-09  2.16e-04     4s
  20  -4.32721078e+02 -4.51089397e+02  7.71e-03 2.50e-09  2.09e-04     4s
  21  -4.37796644e+02 -4.48821609e+02  4.38e-03 1.21e-09  1.26e-04     4s
  22  -4.39439874e+02 -4.48437086e+02  4.06e-02 9.97e-10  1.11e-04     5s
  23  -4.39769078e+02 -4.48231727e+02  3.85e-02 8.67e-10  1.04e-04     5s
  24  -4.39929057e+02 -4.48193445e+02  3.38e-02 8.47e-10  1.01e-04     5s
  25  -4.40706810e+02 -4.47981859e+02  2.52e-02 7.18e-10  8.57e-05     5s
  26  -4.41507248e+02 -4.47587871e+02  2.27e-02 4.83e-10  7.19e-05     5s
  27  -4.45346596e+02 -4.47412244e+02  1.05e-02 3.69e-10  2.48e-05     5s
  28  -4.45824785e+02 -4.47027281e+02  1.12e-02 1.11e-10  1.45e-05     6s
  29  -4.45911983e+02 -4.46985276e+02  1.02e-02 8.54e-11  1.31e-05     6s
  30  -4.46080418e+02 -4.46878253e+02  1.03e-02 2.91e-11  9.27e-06     6s
  31  -4.46751579e+02 -4.46867231e+02  9.25e-03 1.46e-11  1.45e-06     6s
  32  -4.46757937e+02 -4.46861550e+02  8.71e-03 1.46e-11  1.31e-06     6s
  33  -4.46810175e+02 -4.46859341e+02  4.43e-03 1.46e-11  6.63e-07     6s
  34  -4.46794316e+02 -4.46859184e+02  2.69e-03 1.46e-11  5.70e-07     7s
  35  -4.46834455e+02 -4.46858610e+02  5.20e-03 1.46e-11  2.62e-07     7s
  36  -4.46835606e+02 -4.46859061e+02  9.02e-03 1.46e-11  1.79e-07     7s
  37  -4.46838759e+02 -4.46858781e+02  7.52e-03 1.46e-11  1.52e-07     7s
  38  -4.46841354e+02 -4.46857683e+02  6.71e-03 1.46e-11  1.29e-07     8s
  39  -4.46857979e+02 -4.46856785e+02  8.46e-04 1.46e-11  2.41e-08     8s
  40  -4.46858385e+02 -4.46856694e+02  4.31e-04 2.91e-11  1.02e-08     8s
  41  -4.46853028e+02 -4.46856641e+02  7.85e-04 1.46e-11  8.25e-10     8s
  42  -4.46856713e+02 -4.46856590e+02  2.77e-04 1.46e-11  3.95e-10     8s
  43  -4.46855409e+02 -4.46856602e+02  6.81e-04 2.91e-11  3.69e-10     9s
  44  -4.46858329e+02 -4.46856628e+02  9.96e-04 1.46e-11  2.48e-10     9s
  45  -4.46844567e+02 -4.46856695e+02  1.31e-03 1.46e-11  1.84e-10     9s
  46  -4.46847257e+02 -4.46856650e+02  1.16e-03 1.46e-11  1.60e-10     9s
  47  -4.46847519e+02 -4.46857035e+02  3.28e-03 1.46e-11  1.71e-10     9s
  48  -4.46861449e+02 -4.46857038e+02  3.59e-04 1.46e-11  8.25e-12    10s
  49  -4.46861461e+02 -4.46857037e+02  3.58e-04 2.91e-11  1.81e-11    10s
  50  -4.46856973e+02 -4.46857044e+02  3.43e-04 2.91e-11  1.08e-11    10s
  51  -4.46858028e+02 -4.46857043e+02  3.14e-04 1.46e-11  6.16e-12    10s
  52  -4.46858032e+02 -4.46857039e+02  3.14e-04 1.46e-11  6.19e-12    10s
  53  -4.46853005e+02 -4.46857037e+02  3.71e-04 1.46e-11  1.18e-11    11s

Barrier performed 53 iterations in 10.69 seconds
Sub-optimal termination - objective -4.32386637e+02

Solve time: 10.693378887
Barrier iterations: 53
